NAME /Users/henri/Research/solvers/instances/idol-instances/robust/collection/cbp_Subramanyam_et_al_2020/CapBud_N25_7/models/uncertain_technology_matrix/
ROWS
 N  OBJ
 L  capacity
 L  c_4015
 L  c_4016
 L  c_4017
 L  c_4018
 L  c_4019
 L  c_4020
 L  c_4021
 L  c_4022
 L  c_4023
 L  c_4024
 L  c_4025
 L  c_4026
 L  c_4027
 L  c_4028
 L  c_4029
 L  c_4030
 L  c_4031
 L  c_4032
 L  c_4033
 L  c_4034
 L  c_4035
 L  c_4036
 L  c_4037
 L  c_4038
 L  c_4039
COLUMNS
    MARKER    'MARKER'                 'INTORG'
    x_0        OBJ        7.1961
    x_0        c_4015     1
    x_0        capacity   1.43922
    x_1        OBJ        4.78008
    x_1        c_4016     1
    x_1        capacity   0.956017
    x_2        OBJ        8.57234
    x_2        c_4017     1
    x_2        capacity   1.71447
    x_3        OBJ        9.65737
    x_3        c_4018     1
    x_3        capacity   1.93147
    x_4        OBJ        9.03578
    x_4        c_4019     1
    x_4        capacity   1.80716
    x_5        OBJ        6.35433
    x_5        c_4020     1
    x_5        capacity   1.27087
    x_6        OBJ        2.57227
    x_6        c_4021     1
    x_6        capacity   0.514453
    x_7        OBJ        6.20907
    x_7        c_4022     1
    x_7        capacity   1.24181
    x_8        OBJ        3.07105
    x_8        c_4023     1
    x_8        capacity   0.614209
    x_9        OBJ        4.6261
    x_9        c_4024     1
    x_9        capacity   0.92522
    x_10       OBJ        8.8764
    x_10       c_4025     1
    x_10       capacity   1.77528
    x_11       OBJ        4.86328
    x_11       c_4026     1
    x_11       capacity   0.972656
    x_12       OBJ        5.32684
    x_12       c_4027     1
    x_12       capacity   1.06537
    x_13       OBJ        7.34608
    x_13       c_4028     1
    x_13       capacity   1.46922
    x_14       OBJ        8.72162
    x_14       c_4029     1
    x_14       capacity   1.74432
    x_15       OBJ        5.73999
    x_15       c_4030     1
    x_15       capacity   1.148
    x_16       OBJ        5.46692
    x_16       c_4031     1
    x_16       capacity   1.09338
    x_17       OBJ        4.61552
    x_17       c_4032     1
    x_17       capacity   0.923104
    x_18       OBJ        7.49323
    x_18       c_4033     1
    x_18       capacity   1.49865
    x_19       OBJ        4.95077
    x_19       c_4034     1
    x_19       capacity   0.990154
    x_20       OBJ        8.23325
    x_20       c_4035     1
    x_20       capacity   1.64665
    x_21       OBJ        4.50008
    x_21       c_4036     1
    x_21       capacity   0.900016
    x_22       OBJ        7.6062
    x_22       c_4037     1
    x_22       capacity   1.52124
    x_23       OBJ        5.82273
    x_23       c_4038     1
    x_23       capacity   1.16455
    x_24       OBJ        2.29251
    x_24       c_4039     1
    x_24       capacity   0.458502
    y_0        OBJ        5.75688
    y_0        c_4015     1
    y_0        capacity   1.43922
    y_1        OBJ        3.82407
    y_1        c_4016     1
    y_1        capacity   0.956017
    y_2        OBJ        6.85787
    y_2        c_4017     1
    y_2        capacity   1.71447
    y_3        OBJ        7.7259
    y_3        c_4018     1
    y_3        capacity   1.93147
    y_4        OBJ        7.22862
    y_4        c_4019     1
    y_4        capacity   1.80716
    y_5        OBJ        5.08346
    y_5        c_4020     1
    y_5        capacity   1.27087
    y_6        OBJ        2.05781
    y_6        c_4021     1
    y_6        capacity   0.514453
    y_7        OBJ        4.96725
    y_7        c_4022     1
    y_7        capacity   1.24181
    y_8        OBJ        2.45684
    y_8        c_4023     1
    y_8        capacity   0.614209
    y_9        OBJ        3.70088
    y_9        c_4024     1
    y_9        capacity   0.92522
    y_10       OBJ        7.10112
    y_10       c_4025     1
    y_10       capacity   1.77528
    y_11       OBJ        3.89062
    y_11       c_4026     1
    y_11       capacity   0.972656
    y_12       OBJ        4.26148
    y_12       c_4027     1
    y_12       capacity   1.06537
    y_13       OBJ        5.87687
    y_13       c_4028     1
    y_13       capacity   1.46922
    y_14       OBJ        6.9773
    y_14       c_4029     1
    y_14       capacity   1.74432
    y_15       OBJ        4.59199
    y_15       c_4030     1
    y_15       capacity   1.148
    y_16       OBJ        4.37354
    y_16       c_4031     1
    y_16       capacity   1.09338
    y_17       OBJ        3.69242
    y_17       c_4032     1
    y_17       capacity   0.923104
    y_18       OBJ        5.99458
    y_18       c_4033     1
    y_18       capacity   1.49865
    y_19       OBJ        3.96062
    y_19       c_4034     1
    y_19       capacity   0.990154
    y_20       OBJ        6.5866
    y_20       c_4035     1
    y_20       capacity   1.64665
    y_21       OBJ        3.60006
    y_21       c_4036     1
    y_21       capacity   0.900016
    y_22       OBJ        6.08496
    y_22       c_4037     1
    y_22       capacity   1.52124
    y_23       OBJ        4.65818
    y_23       c_4038     1
    y_23       capacity   1.16455
    y_24       OBJ        1.83401
    y_24       c_4039     1
    y_24       capacity   0.458502
    MARKER    'MARKER'                 'INTEND'
RHS
    RHS       capacity   76.965
    RHS       c_4015     1
    RHS       c_4016     1
    RHS       c_4017     1
    RHS       c_4018     1
    RHS       c_4019     1
    RHS       c_4020     1
    RHS       c_4021     1
    RHS       c_4022     1
    RHS       c_4023     1
    RHS       c_4024     1
    RHS       c_4025     1
    RHS       c_4026     1
    RHS       c_4027     1
    RHS       c_4028     1
    RHS       c_4029     1
    RHS       c_4030     1
    RHS       c_4031     1
    RHS       c_4032     1
    RHS       c_4033     1
    RHS       c_4034     1
    RHS       c_4035     1
    RHS       c_4036     1
    RHS       c_4037     1
    RHS       c_4038     1
    RHS       c_4039     1
BOUNDS
 LI BND       x_0        0
 UI BND       x_0        1
 LI BND       x_1        0
 UI BND       x_1        1
 LI BND       x_2        0
 UI BND       x_2        1
 LI BND       x_3        0
 UI BND       x_3        1
 LI BND       x_4        0
 UI BND       x_4        1
 LI BND       x_5        0
 UI BND       x_5        1
 LI BND       x_6        0
 UI BND       x_6        1
 LI BND       x_7        0
 UI BND       x_7        1
 LI BND       x_8        0
 UI BND       x_8        1
 LI BND       x_9        0
 UI BND       x_9        1
 LI BND       x_10       0
 UI BND       x_10       1
 LI BND       x_11       0
 UI BND       x_11       1
 LI BND       x_12       0
 UI BND       x_12       1
 LI BND       x_13       0
 UI BND       x_13       1
 LI BND       x_14       0
 UI BND       x_14       1
 LI BND       x_15       0
 UI BND       x_15       1
 LI BND       x_16       0
 UI BND       x_16       1
 LI BND       x_17       0
 UI BND       x_17       1
 LI BND       x_18       0
 UI BND       x_18       1
 LI BND       x_19       0
 UI BND       x_19       1
 LI BND       x_20       0
 UI BND       x_20       1
 LI BND       x_21       0
 UI BND       x_21       1
 LI BND       x_22       0
 UI BND       x_22       1
 LI BND       x_23       0
 UI BND       x_23       1
 LI BND       x_24       0
 UI BND       x_24       1
 LI BND       y_0        0
 UI BND       y_0        1
 LI BND       y_1        0
 UI BND       y_1        1
 LI BND       y_2        0
 UI BND       y_2        1
 LI BND       y_3        0
 UI BND       y_3        1
 LI BND       y_4        0
 UI BND       y_4        1
 LI BND       y_5        0
 UI BND       y_5        1
 LI BND       y_6        0
 UI BND       y_6        1
 LI BND       y_7        0
 UI BND       y_7        1
 LI BND       y_8        0
 UI BND       y_8        1
 LI BND       y_9        0
 UI BND       y_9        1
 LI BND       y_10       0
 UI BND       y_10       1
 LI BND       y_11       0
 UI BND       y_11       1
 LI BND       y_12       0
 UI BND       y_12       1
 LI BND       y_13       0
 UI BND       y_13       1
 LI BND       y_14       0
 UI BND       y_14       1
 LI BND       y_15       0
 UI BND       y_15       1
 LI BND       y_16       0
 UI BND       y_16       1
 LI BND       y_17       0
 UI BND       y_17       1
 LI BND       y_18       0
 UI BND       y_18       1
 LI BND       y_19       0
 UI BND       y_19       1
 LI BND       y_20       0
 UI BND       y_20       1
 LI BND       y_21       0
 UI BND       y_21       1
 LI BND       y_22       0
 UI BND       y_22       1
 LI BND       y_23       0
 UI BND       y_23       1
 LI BND       y_24       0
 UI BND       y_24       1
ENDATA
